34 2000
3 142
6 156
8 195
6 195
5 189
8 139
7 189
4 142
11 156
5 198
9 157
3 114
4 185
3 166
6 198
11 105
11 141
4 139
2 195
8 105
7 141
8 197
3 188
9 193
2 181
9 114
8 193
7 197
2 195
5 166
2 185
10 157
11 188
4 181
